language ESSENCE' 1.0

letting jobs = 102
letting horizon = 815
letting resourcesRenew = 2
letting resourcesNonrenew = 2
letting resourceLimits = [77, 70, 282, 295]
letting successors = [[2, 3, 5, 6, 7, 8, 9, 10, 11, 12, 13, 14, 15, 16, 17, 18, 19, 20, 22, 23, 24, 25, 26, 29, 36, 38, 42, 43], [71, 69, 58, 51, 45, 41, 40, 31, 30, 28, 4], [101, 98, 70, 68, 67, 62, 60, 57, 56, 55, 54, 50, 48, 47, 46, 40, 39, 30, 27], [100, 99, 98, 97, 89, 63, 57, 54, 49, 48, 46, 44, 39, 37, 33, 21], [100, 99, 98, 97, 95, 93, 88, 85, 71, 70, 69, 68, 67, 64, 61, 58, 57, 50, 49, 47, 46, 40, 34], [97, 96, 94, 92, 89, 86, 70, 69, 68, 64, 62, 60, 57, 56, 55, 47, 33, 30], [101, 97, 92, 86, 69, 62, 59, 57, 50, 48, 46, 45, 33, 30], [100, 99, 98, 97, 96, 95, 92, 91, 89, 88, 69, 67, 62, 58, 57, 50, 49, 48, 28], [101, 100, 99, 93, 88, 71, 69, 67, 62, 57, 56, 53, 46, 45, 40, 39], [99, 95, 88, 87, 79, 68, 67, 63, 61, 50, 49, 46, 44, 39, 35], [101, 96, 95, 93, 90, 88, 87, 86, 85, 71, 70, 68, 67, 64, 62, 61, 60, 58, 57, 56, 50, 48], [100, 98, 97, 92, 91, 89, 88, 87, 86, 71, 70, 69, 68, 67, 64, 60, 56, 48, 47, 46], [99, 98, 97, 95, 92, 90, 89, 88, 79, 70, 68, 67, 66, 60, 57, 52, 50, 46, 44], [99, 93, 88, 85, 64, 62, 61, 57, 49, 34, 32], [99, 95, 91, 88, 79, 68, 66, 65, 60, 53, 51, 46, 39], [99, 97, 96, 95, 93, 89, 88, 82, 79, 75, 68, 67, 65, 60, 53, 50, 39], [99, 98, 96, 93, 92, 91, 90, 89, 88, 86, 82, 81, 79, 78, 75, 68, 67, 66, 65, 63, 53], [98, 97, 95, 93, 92, 91, 89, 87, 86, 85, 79, 69, 65, 62, 61, 57, 50, 46], [99, 98, 93, 91, 90, 89, 87, 69, 68, 65, 62, 61, 60, 59, 57, 50, 48], [101, 100, 95, 92, 91, 90, 88, 81, 71, 69, 65, 60, 53, 51, 48], [95, 94, 93, 90, 88, 87, 86, 82, 79, 70, 67, 64, 61, 60, 56, 50], [98, 97, 92, 88, 85, 65, 64, 63, 62, 60, 57, 33], [98, 97, 93, 92, 91, 90, 89, 88, 86, 85, 84, 83, 82, 81, 79, 76, 73, 69, 63, 61, 60], [97, 96, 91, 89, 87, 86, 85, 83, 75, 67, 65, 60, 57, 48], [101, 100, 98, 96, 91, 88, 86, 85, 83, 79, 77, 71, 68, 66, 57, 47], [101, 99, 95, 85, 79, 75, 67, 63, 61, 60, 39], [100, 97, 95, 93, 91, 88, 81, 79, 78, 76, 75, 73, 63, 53], [87, 86, 85, 82, 81, 79, 64, 61, 60, 56], [97, 94, 91, 87, 82, 80, 78, 68, 64, 50, 47], [99, 95, 91, 88, 84, 83, 82, 79, 76, 74, 66, 53], [94, 93, 86, 81, 79, 78, 77, 76, 74, 73, 53], [94, 89, 87, 82, 69, 67, 50], [93, 90, 81, 80, 79, 77, 75, 74, 73, 72, 67], [92, 90, 83, 82, 80, 79, 75, 74, 73, 72, 65], [97, 91, 89, 86, 75, 74, 66, 57], [98, 94, 89, 88, 83, 82, 81, 80, 79, 78, 73], [92, 88, 79, 75, 74, 73, 72, 67, 62], [90, 87, 77, 76, 73, 72, 65, 60], [92, 90, 86, 83, 81, 78, 77, 76, 74, 73], [91, 89, 86, 84, 79, 78, 77, 75, 74, 72], [96, 94, 89, 85, 84, 82, 81, 75, 68], [95, 89, 85, 77, 75, 72, 66, 65], [91, 86, 83, 81, 79, 78, 77, 74, 72], [93, 85, 83, 78, 75, 74, 73, 65], [94, 89, 80, 79, 75, 60], [96, 94, 83, 82, 80, 75, 73], [81, 76, 75, 74, 73, 72], [80, 79, 77, 72, 66], [80, 73, 72, 60], [81, 77, 74, 73, 72], [98, 86, 83, 74, 72], [81, 78, 76, 74, 72], [87, 85, 61], [95, 78, 77, 72], [85, 75, 74, 72], [83, 75, 65], [82, 76, 72], [82, 79, 76], [83, 78, 73], [78, 74], [80, 72], [77, 76], [77, 74], [66], [84], [73], [76], [72], [75], [76], [73], [102], [102], [102], [102], [102], [102], [102], [102], [102], [102], [102], [102], [102], [102], [102], [102], [102], [102], [102], [102], [102], [102], [102], [102], [102], [102], [102], [102], [102], [102], []]
letting durations = [[0], [1, 6, 10], [5, 6, 8], [1, 3, 9], [4, 7, 8], [7, 9, 10], [4, 5, 8], [9, 10, 10], [5, 6, 8], [1, 4, 10], [3, 7, 10], [1, 4, 10], [1, 1, 6], [1, 2, 7], [2, 8, 9], [2, 6, 9], [1, 8, 9], [2, 3, 7], [3, 5, 5], [5, 9, 9], [1, 5, 10], [4, 8, 10], [3, 9, 9], [4, 5, 9], [2, 4, 10], [4, 5, 9], [4, 5, 10], [3, 3, 5], [2, 5, 8], [2, 6, 9], [3, 4, 10], [3, 5, 5], [4, 7, 10], [1, 2, 10], [1, 4, 7], [4, 4, 9], [1, 3, 4], [4, 6, 7], [1, 3, 5], [1, 2, 5], [2, 3, 4], [1, 8, 9], [2, 4, 8], [2, 3, 7], [3, 5, 6], [5, 5, 9], [1, 4, 8], [4, 7, 10], [1, 6, 10], [2, 3, 6], [1, 5, 6], [2, 5, 8], [2, 5, 9], [2, 3, 7], [1, 2, 10], [2, 3, 9], [6, 8, 8], [2, 5, 6], [1, 2, 7], [1, 7, 10], [2, 3, 10], [4, 7, 10], [3, 5, 8], [3, 8, 9], [4, 7, 10], [2, 7, 10], [1, 5, 5], [2, 4, 5], [2, 4, 10], [1, 9, 10], [1, 3, 9], [2, 3, 6], [3, 4, 9], [5, 5, 8], [7, 10, 10], [6, 7, 9], [5, 6, 7], [3, 5, 9], [4, 4, 10], [5, 5, 6], [1, 4, 6], [6, 7, 8], [2, 3, 10], [7, 9, 10], [2, 4, 9], [1, 1, 7], [1, 2, 8], [3, 3, 4], [6, 7, 8], [2, 5, 6], [2, 3, 5], [3, 4, 9], [3, 8, 9], [4, 5, 10], [2, 4, 10], [1, 2, 8], [1, 4, 5], [1, 4, 9], [2, 4, 7], [2, 3, 8], [7, 8, 9], [0]]
letting resourceUsage = [[[0, 0, 0, 0]], [[5, 5, 6, 0], [3, 3, 0, 5], [2, 3, 0, 5]], [[4, 3, 0, 8], [3, 3, 0, 6], [3, 3, 0, 5]], [[4, 3, 0, 9], [4, 3, 0, 6], [2, 3, 0, 5]], [[3, 4, 0, 7], [3, 3, 0, 7], [3, 3, 5, 0]], [[4, 1, 0, 4], [3, 1, 0, 2], [2, 1, 0, 2]], [[4, 3, 9, 0], [2, 3, 0, 7], [1, 3, 6, 0]], [[4, 3, 0, 8], [4, 2, 0, 7], [4, 2, 2, 0]], [[2, 5, 5, 0], [2, 2, 0, 9], [2, 2, 3, 0]], [[3, 3, 7, 0], [3, 2, 0, 4], [2, 1, 0, 2]], [[2, 4, 0, 8], [1, 3, 7, 0], [1, 3, 0, 4]], [[4, 4, 0, 9], [3, 2, 0, 8], [3, 2, 0, 7]], [[4, 4, 5, 0], [4, 4, 0, 2], [4, 4, 4, 0]], [[2, 2, 5, 0], [2, 2, 0, 5], [2, 2, 0, 2]], [[5, 2, 3, 0], [4, 2, 0, 3], [3, 2, 0, 2]], [[4, 4, 0, 4], [4, 2, 0, 3], [4, 2, 3, 0]], [[5, 3, 8, 0], [4, 3, 6, 0], [3, 3, 4, 0]], [[1, 4, 10, 0], [1, 4, 9, 0], [1, 4, 8, 0]], [[5, 3, 0, 4], [5, 2, 0, 3], [5, 2, 4, 0]], [[3, 2, 0, 7], [2, 2, 0, 5], [1, 1, 4, 0]], [[4, 2, 0, 3], [3, 1, 0, 1], [3, 1, 3, 0]], [[5, 3, 0, 9], [5, 3, 0, 6], [5, 1, 1, 0]], [[5, 4, 4, 0], [4, 3, 2, 0], [3, 3, 0, 3]], [[4, 4, 0, 10], [2, 2, 3, 0], [1, 1, 0, 5]], [[1, 4, 0, 8], [1, 4, 5, 0], [1, 4, 0, 3]], [[4, 2, 9, 0], [3, 1, 9, 0], [3, 1, 7, 0]], [[2, 2, 6, 0], [2, 2, 3, 0], [2, 2, 0, 1]], [[1, 2, 9, 0], [1, 1, 0, 6], [1, 1, 0, 4]], [[5, 2, 0, 3], [3, 2, 0, 2], [3, 2, 6, 0]], [[4, 4, 1, 0], [4, 4, 0, 5], [4, 3, 1, 0]], [[5, 3, 0, 6], [5, 3, 6, 0], [5, 2, 0, 5]], [[3, 5, 7, 0], [3, 5, 0, 6], [1, 5, 5, 0]], [[4, 5, 0, 9], [3, 4, 0, 7], [3, 3, 0, 4]], [[4, 1, 10, 0], [3, 1, 0, 4], [2, 1, 0, 4]], [[3, 5, 0, 3], [3, 4, 4, 0], [3, 4, 0, 2]], [[2, 5, 0, 8], [1, 5, 4, 0], [1, 5, 0, 5]], [[3, 5, 9, 0], [3, 5, 8, 0], [3, 5, 7, 0]], [[4, 3, 0, 9], [4, 2, 0, 5], [3, 1, 0, 5]], [[3, 3, 0, 9], [2, 3, 0, 7], [2, 2, 10, 0]], [[4, 4, 8, 0], [4, 3, 6, 0], [4, 3, 4, 0]], [[4, 5, 0, 4], [3, 3, 3, 0], [3, 3, 0, 4]], [[4, 2, 8, 0], [4, 2, 7, 0], [4, 2, 4, 0]], [[4, 2, 8, 0], [4, 2, 5, 0], [4, 2, 4, 0]], [[2, 5, 0, 5], [2, 3, 0, 5], [2, 2, 8, 0]], [[5, 4, 6, 0], [2, 3, 0, 4], [2, 3, 0, 2]], [[3, 2, 0, 8], [2, 2, 9, 0], [2, 2, 0, 8]], [[3, 3, 8, 0], [2, 2, 5, 0], [2, 2, 3, 0]], [[2, 5, 0, 10], [1, 5, 0, 8], [1, 5, 7, 0]], [[5, 5, 10, 0], [5, 4, 5, 0], [5, 3, 0, 2]], [[3, 5, 0, 9], [3, 5, 4, 0], [2, 5, 4, 0]], [[4, 2, 9, 0], [2, 1, 0, 9], [2, 1, 0, 8]], [[3, 4, 4, 0], [3, 4, 0, 6], [1, 2, 4, 0]], [[1, 2, 10, 0], [1, 2, 0, 5], [1, 2, 5, 0]], [[4, 4, 0, 6], [3, 2, 0, 5], [2, 2, 7, 0]], [[4, 2, 7, 0], [4, 2, 6, 0], [4, 2, 0, 1]], [[4, 5, 7, 0], [2, 4, 5, 0], [1, 4, 4, 0]], [[4, 3, 0, 6], [4, 2, 6, 0], [4, 1, 0, 3]], [[2, 5, 0, 4], [1, 5, 5, 0], [1, 5, 2, 0]], [[3, 4, 7, 0], [3, 4, 6, 0], [3, 3, 5, 0]], [[4, 4, 0, 5], [3, 3, 0, 5], [2, 3, 2, 0]], [[4, 5, 0, 7], [4, 5, 0, 6], [2, 5, 0, 7]], [[4, 5, 5, 0], [3, 5, 0, 6], [2, 5, 1, 0]], [[2, 3, 4, 0], [2, 3, 0, 3], [2, 3, 3, 0]], [[3, 4, 3, 0], [2, 3, 0, 4], [2, 2, 3, 0]], [[4, 4, 0, 6], [4, 4, 6, 0], [4, 4, 4, 0]], [[3, 2, 0, 4], [2, 1, 6, 0], [2, 1, 0, 1]], [[5, 5, 0, 6], [4, 5, 0, 5], [4, 5, 1, 0]], [[2, 4, 0, 7], [2, 3, 0, 6], [2, 3, 0, 5]], [[2, 2, 3, 0], [2, 1, 0, 6], [2, 1, 3, 0]], [[3, 4, 0, 9], [3, 4, 7, 0], [3, 4, 2, 0]], [[5, 2, 8, 0], [3, 1, 8, 0], [3, 1, 0, 2]], [[4, 3, 0, 5], [3, 3, 0, 3], [1, 2, 10, 0]], [[5, 2, 7, 0], [3, 1, 4, 0], [3, 1, 0, 2]], [[3, 4, 8, 0], [1, 3, 0, 2], [1, 3, 0, 1]], [[5, 2, 0, 7], [4, 2, 6, 0], [4, 1, 0, 1]], [[3, 4, 6, 0], [3, 2, 0, 5], [2, 2, 1, 0]], [[3, 2, 0, 9], [2, 1, 6, 0], [2, 1, 5, 0]], [[2, 4, 3, 0], [2, 3, 2, 0], [2, 3, 1, 0]], [[5, 3, 5, 0], [3, 3, 0, 6], [3, 3, 0, 3]], [[4, 4, 10, 0], [2, 4, 0, 4], [1, 3, 7, 0]], [[1, 2, 5, 0], [1, 2, 4, 0], [1, 1, 0, 3]], [[5, 4, 0, 7], [5, 2, 0, 7], [5, 2, 0, 6]], [[2, 4, 0, 8], [1, 3, 0, 5], [1, 3, 0, 3]], [[5, 1, 0, 7], [4, 1, 7, 0], [3, 1, 0, 3]], [[3, 1, 5, 0], [3, 1, 4, 0], [3, 1, 0, 4]], [[2, 3, 0, 3], [2, 3, 6, 0], [2, 3, 5, 0]], [[2, 5, 0, 5], [2, 3, 0, 4], [2, 3, 0, 3]], [[2, 5, 0, 8], [1, 3, 4, 0], [1, 2, 0, 7]], [[3, 4, 0, 7], [3, 3, 0, 5], [3, 3, 6, 0]], [[5, 4, 9, 0], [4, 3, 0, 7], [4, 3, 0, 6]], [[4, 4, 0, 9], [4, 4, 4, 0], [4, 2, 0, 2]], [[3, 5, 0, 10], [3, 4, 0, 8], [1, 2, 0, 7]], [[4, 4, 0, 10], [4, 3, 0, 9], [4, 1, 0, 9]], [[1, 2, 0, 6], [1, 1, 0, 5], [1, 1, 3, 0]], [[5, 3, 0, 8], [3, 3, 0, 7], [2, 3, 4, 0]], [[1, 2, 4, 0], [1, 1, 4, 0], [1, 1, 3, 0]], [[3, 3, 0, 2], [3, 2, 5, 0], [2, 1, 5, 0]], [[3, 1, 9, 0], [2, 1, 0, 6], [2, 1, 2, 0]], [[3, 5, 0, 8], [3, 4, 0, 6], [2, 3, 9, 0]], [[3, 4, 0, 6], [3, 2, 0, 6], [3, 2, 0, 5]], [[2, 2, 0, 2], [1, 1, 0, 2], [1, 1, 0, 1]], [[0, 0, 0, 0]]]
